20	5
0	7	5	7	2	3	6	4	1
1	9	11	14	17	12	16	15	20	13	19
2	8	16	12	10	19	15	11	18	14
3	4	9	11	16	17
4	7	15	19	16	14	10	12	18
5	5	10	16	19	15	11
6	7	18	15	12	16	10	14	11
7	8	19	13	17	14	16	12	20	15
8	4	20	15	12	19
9	4	8	18	14	13
10	2	17	13
11	1	21
12	1	21
13	1	21
14	1	21
15	1	21
16	1	21
17	1	21
18	1	21
19	1	21
20	1	21
21	0
0	0	0	0	0	0	0
1	8	0	4	4	0	5
2	2	0	1	1	0	2
3	7	5	4	3	3	1
4	4	0	1	4	0	0
5	8	0	1	0	5	0
6	7	1	3	1	0	0
7	7	0	0	2	0	0
8	1	0	4	4	0	0
9	1	0	0	0	0	1
10	8	4	0	0	4	0
11	8	0	3	2	0	0
12	8	5	0	5	2	0
13	8	5	0	0	5	5
14	2	4	0	0	2	5
15	4	0	2	4	0	0
16	8	5	4	0	3	0
17	7	5	5	1	4	0
18	8	0	0	0	2	0
19	9	4	0	0	0	0
20	9	5	2	2	0	1
21	0	0	0	0	0	0
5	5	5	5	5
